(set-logic QF_UF)
(declare-fun circuit () Bool)
(declare-fun grn () Bool)
(declare-fun org () Bool)
(declare-fun rd1 () Bool)
(declare-fun rd2 () Bool)
(assert (not (not (= (not (not org)) org))))
(assert (not (not (not (not org)))))
(assert (not org))
(check-sat)
(exit)
